NAME : n100w40.003.835.tour
COMMENT : Length = 835
COMMENT : Found by LKH [Keld Helsgaun] Tue May  2 05:48:14 2017
TYPE : TOUR
DIMENSION : 101
TOUR_SECTION
1
42
46
41
4
49
71
96
7
85
45
23
21
35
15
44
22
30
63
67
60
20
76
65
11
59
36
70
62
86
97
48
74
25
77
32
56
92
50
28
13
94
69
66
95
12
91
47
39
3
99
33
87
19
98
90
37
53
80
8
93
84
18
78
24
55
38
72
27
68
52
54
29
31
83
17
89
79
58
5
75
9
10
64
61
100
16
88
51
2
82
43
14
73
57
26
34
40
81
101
6
-1
EOF
